500
300
240
240
240
240
239
239
239
238
237
237
237
235
235
234
234
234
233
233
233
231
230
230
229
229
229
229
229
229
228
227
227
227
227
227
227
227
226
226
226
226
226
226
225
225
225
225
224
224
224
223
221
220
219
218
217
216
216
215
214
213
213
213
213
212
211
211
211
210
210
210
208
208
207
207
207
207
207
206
206
206
206
206
206
205
205
205
203
202
202
202
201
200
200
200
200
200
199
198
198
198
197
197
196
195
195
195
195
194
194
194
194
193
193
193
193
193
192
192
191
191
191
191
191
190
190
190
190
190
190
190
189
189
189
188
188
188
188
187
186
184
183
183
183
182
181
179
179
179
179
179
179
178
178
177
177
177
176
176
175
175
175
174
174
174
173
172
171
170
170
168
168
168
168
168
168
168
168
167
167
167
167
167
167
167
166
166
166
166
166
166
165
165
165
164
164
163
163
163
161
161
161
161
159
159
158
158
158
157
157
157
157
156
156
155
155
155
154
154
153
151
151
149
149
149
149
148
148
148
147
146
146
146
146
145
145
145
144
144
144
144
143
141
141
140
140
140
140
140
140
139
138
138
136
136
136
136
136
135
134
134
134
133
133
133
133
133
132
131
130
129
129
129
129
128
128
128
128
128
128
128
128
127
127
127
126
126
126
125
124
124
123
123
123
123
123
122
122
121
120
120
119
119
118
118
117
117
116
116
116
113
112
111
111
110
110
109
109
108
108
107
107
106
106
105
105
105
104
104
104
103
103
103
102
102
102
102
101
101
101
101
100
100
99
98
97
95
95
95
95
95
94
94
94
94
94
92
92
92
91
91
91
91
91
88
88
88
88
87
87
86
86
85
84
84
84
84
84
83
83
82
82
81
80
80
79
79
79
78
77
76
76
76
75
75
75
74
73
73
73
72
72
72
70
68
68
68
68
67
66
65
65
65
65
65
64
64
63
63
62
62
60
60
60
59
59
59
58
58
57
57
56
56
56
55
55
55
54
54
54
54
53
53
53
52
52
50
50
50
49
49
48
47
47
47
45
44
43
42
42
42
41
41
41
41
41
41
40
40
40
40
39
38
37
36
36
36
36
36
35
35
35
34
34
34
34
34
34
34
33
32
32
32
31
31
31
30
30
30
30
30
